
Gurobi 7.0.2 (linux64, Matlab) logging started Sun Sep  2 08:56:59 2018


Gurobi 7.0.2 (linux64) logging started Sun Sep  2 08:56:59 2018

Optimize a model with 4325 rows, 9511 columns and 30833 nonzeros
Coefficient statistics:
  Matrix range     [8e-02, 2e+00]
  Objective range  [2e+02, 4e+07]
  Bounds range     [1e-03, 3e+02]
  RHS range        [1e+00, 1e+02]
Iteration    Objective       Primal Inf.    Dual Inf.      Time
       0    1.1248647e+07   0.000000e+00   0.000000e+00      0s

Solved in 0 iterations and 0.01 seconds
Optimal objective  1.124864745e+07
